
Gurobi 9.5.2 (win64) logging started Mon Mar 27 20:43:38 2023

Set parameter LogFile to value "2023-03-27_20hr-25min-09sec/Nodes20_Arcs25_LocNodes15/Formulation-1Instance-1.log"
Set parameter TimeLimit to value 600
Set parameter IntFeasTol to value 1e-09
Set parameter DualReductions to value 0
Set parameter NonConvex to value 2
Gurobi Optimizer version 9.5.2 build v9.5.2rc0 (win64)
Thread count: 4 physical cores, 8 logical processors, using up to 8 threads
Optimize a model with 81 rows, 140 columns and 290 nonzeros
Model fingerprint: 0xbc74d227
Model has 15 quadratic objective terms
Model has 45 SOS constraints
Variable types: 125 continuous, 15 integer (15 binary)
Coefficient statistics:
  Matrix range     [1e-01, 2e+02]
  Objective range  [3e+00, 2e+02]
  QObjective range [2e+00, 2e+00]
  Bounds range     [1e+00, 1e+00]
  RHS range        [4e-02, 1e+03]
Presolve time: 0.00s
Presolved: 112 rows, 157 columns, 369 nonzeros
Presolved model has 45 SOS constraint(s)
Presolved model has 15 bilinear constraint(s)
Variable types: 142 continuous, 15 integer (15 binary)

Root relaxation: unbounded, 51 iterations, 0.00 seconds (0.00 work units)

    Nodes    |    Current Node    |     Objective Bounds      |     Work
 Expl Unexpl |  Obj  Depth IntInf | Incumbent    BestBd   Gap | It/Node Time

     0     0  postponed    0               -          -      -     -    0s
     0     0  postponed    0               -          -      -     -    0s
Exploring 100 nodes in MinRel heuristic
H    0     0                    -5535.863096          -      -     -    0s
Feasible solution found by MinRel heuristic at node 47
     0     2  postponed    0      -5535.8631          -      -     -    0s
H18236   759                    252825.14477          -      -  10.2    3s
*18975   786              42    252836.90459          -      -  10.1    3s
*18987   786              48    252839.59806          -      -  10.1    3s
*18990   786              50    252839.76032          -      -  10.1    3s
*18997   786              54    252839.76688          -      -  10.1    3s
*26013   709              48    252839.77722          -      -   9.5    4s
*26019   709              51    252839.77832          -      -   9.5    4s
H26022   709                    252839.77841          -      -   9.5    4s
H26259   705                    390588.94301          -      -   9.5    4s
 26728   821 infeasible   30      390588.943          -      -   9.5    5s
*26744   821              34    390594.76975          -      -   9.5    5s
*26754   821              38    390594.78370          -      -   9.4    5s
*26757   821              39    390594.78412          -      -   9.4    5s
*26758   821              40    390594.78656          -      -   9.4    5s
*26763   821              42    390594.78663          -      -   9.4    5s
H26894   821                    391230.20631          -      -   9.4    5s
*26997   821              89    392836.54018          -      -   9.4    5s
H27843   751                    393014.54018          -      -   9.3    5s
H28932  1625                    393016.26526          -      -   9.2    5s
H29246  1614                    393082.90630          -      -   9.1    5s
H29403  1598                    393323.03649          -      -   9.1    5s
H34110  5180                    393488.03649          -      -  10.5    7s
 46116 10045  postponed  371      393488.036          -      -  12.4   10s

Explored 55770 nodes (797226 simplex iterations) in 12.48 seconds (1.85 work units)
Thread count was 8 (of 8 available processors)

Solution count 10: 393488 393323 393083 ... 390595

Model is unbounded
Best objective 3.934880364902e+05, best bound -, gap -

User-callback calls 111941, time in user-callback 1.02 sec
